\ This file has been generated by DOcplex
\ ENCODING=ISO-8859-1
\Problem name: MCLP15_un_c_4x5-2

Minimize
 obj: - 51 y_0 - 51 y_1 - 51 y_2 - 51 y_3 - 51 y_4 - 51 y_5 - 51 y_6 - 51 y_7
      - 51 y_8 - 51 y_9 - 51 y_10 - 51 y_11 - 51 y_12 - 51 y_13 - 51 y_14
      - 51 y_15 - 48 y_16 - 51 y_17 - 49 y_18 - 51 y_19 - 260 x_0 - 312 x_1
      - 312 x_3 - 312 x_9 - 312 x_10 - 364 x_12 - 260 x_19
      + 52 c1a_0_int_slack_0 + 52 c1a_0_int_slack_1 + 52 c1a_1_int_slack_0
      + 52 c1a_1_int_slack_1 + 52 c1a_2_int_slack_0 + 52 c1a_2_int_slack_1
      + 52 c1a_3_int_slack_0 + 52 c1a_4_int_slack_0 + 52 c1a_4_int_slack_1
      + 52 c1a_5_int_slack_0 + 52 c1a_5_int_slack_1 + 52 c1a_6_int_slack_0
      + 52 c1a_7_int_slack_0 + 52 c1a_8_int_slack_0 + 52 c1a_8_int_slack_1
      + 52 c1a_9_int_slack_0 + 52 c1a_10_int_slack_0 + 52 c1a_11_int_slack_0
      + 52 c1a_11_int_slack_1 + 52 c1a_12_int_slack_0 + 52 c1a_13_int_slack_0
      + 52 c1a_14_int_slack_0 + 52 c1a_14_int_slack_1 + 52 c1a_15_int_slack_0
      + 52 c1a_17_int_slack_0 + 52 c1a_18_int_slack_0 + 52 c1a_19_int_slack_0 +
      [ 52 y_0^2 + 104 y_0*x_0 + 104 y_0*x_1 - 104 y_0*c1a_0_int_slack_0
      - 104 y_0*c1a_0_int_slack_1 + 52 y_1^2 + 104 y_1*x_0 + 104 y_1*x_1
      - 104 y_1*c1a_1_int_slack_0 - 104 y_1*c1a_1_int_slack_1 + 52 y_2^2
      + 104 y_2*x_1 + 104 y_2*x_3 - 104 y_2*c1a_2_int_slack_0
      - 104 y_2*c1a_2_int_slack_1 + 52 y_3^2 + 104 y_3*x_3
      - 104 y_3*c1a_3_int_slack_0 + 52 y_4^2 + 104 y_4*x_3 + 104 y_4*x_9
      - 104 y_4*c1a_4_int_slack_0 - 104 y_4*c1a_4_int_slack_1 + 52 y_5^2
      + 104 y_5*x_0 + 104 y_5*x_10 - 104 y_5*c1a_5_int_slack_0
      - 104 y_5*c1a_5_int_slack_1 + 52 y_6^2 + 104 y_6*x_1
      - 104 y_6*c1a_6_int_slack_0 + 52 y_7^2 + 104 y_7*x_12
      - 104 y_7*c1a_7_int_slack_0 + 52 y_8^2 + 104 y_8*x_3 + 104 y_8*x_9
      - 104 y_8*c1a_8_int_slack_0 - 104 y_8*c1a_8_int_slack_1 + 52 y_9^2
      + 104 y_9*x_9 - 104 y_9*c1a_9_int_slack_0 + 52 y_10^2 + 104 y_10*x_10
      - 104 y_10*c1a_10_int_slack_0 + 52 y_11^2 + 104 y_11*x_10 + 104 y_11*x_12
      - 104 y_11*c1a_11_int_slack_0 - 104 y_11*c1a_11_int_slack_1 + 52 y_12^2
      + 104 y_12*x_12 - 104 y_12*c1a_12_int_slack_0 + 52 y_13^2 + 104 y_13*x_12
      - 104 y_13*c1a_13_int_slack_0 + 52 y_14^2 + 104 y_14*x_9 + 104 y_14*x_19
      - 104 y_14*c1a_14_int_slack_0 - 104 y_14*c1a_14_int_slack_1 + 52 y_15^2
      + 104 y_15*x_10 - 104 y_15*c1a_15_int_slack_0 + 52 y_16^2 + 52 y_17^2
      + 104 y_17*x_12 - 104 y_17*c1a_17_int_slack_0 + 52 y_18^2 + 104 y_18*x_19
      - 104 y_18*c1a_18_int_slack_0 + 52 y_19^2 + 104 y_19*x_19
      - 104 y_19*c1a_19_int_slack_0 + 208 x_0^2 + 312 x_0*x_1 + 104 x_0*x_3
      + 104 x_0*x_9 + 208 x_0*x_10 + 104 x_0*x_12 + 104 x_0*x_19
      - 104 x_0*c1a_0_int_slack_0 - 104 x_0*c1a_0_int_slack_1
      - 104 x_0*c1a_1_int_slack_0 - 104 x_0*c1a_1_int_slack_1
      - 104 x_0*c1a_5_int_slack_0 - 104 x_0*c1a_5_int_slack_1 + 260 x_1^2
      + 208 x_1*x_3 + 104 x_1*x_9 + 104 x_1*x_10 + 104 x_1*x_12 + 104 x_1*x_19
      - 104 x_1*c1a_0_int_slack_0 - 104 x_1*c1a_0_int_slack_1
      - 104 x_1*c1a_1_int_slack_0 - 104 x_1*c1a_1_int_slack_1
      - 104 x_1*c1a_2_int_slack_0 - 104 x_1*c1a_2_int_slack_1
      - 104 x_1*c1a_6_int_slack_0 + 260 x_3^2 + 312 x_3*x_9 + 104 x_3*x_10
      + 104 x_3*x_12 + 104 x_3*x_19 - 104 x_3*c1a_2_int_slack_0
      - 104 x_3*c1a_2_int_slack_1 - 104 x_3*c1a_3_int_slack_0
      - 104 x_3*c1a_4_int_slack_0 - 104 x_3*c1a_4_int_slack_1
      - 104 x_3*c1a_8_int_slack_0 - 104 x_3*c1a_8_int_slack_1 + 260 x_9^2
      + 104 x_9*x_10 + 104 x_9*x_12 + 208 x_9*x_19 - 104 x_9*c1a_4_int_slack_0
      - 104 x_9*c1a_4_int_slack_1 - 104 x_9*c1a_8_int_slack_0
      - 104 x_9*c1a_8_int_slack_1 - 104 x_9*c1a_9_int_slack_0
      - 104 x_9*c1a_14_int_slack_0 - 104 x_9*c1a_14_int_slack_1 + 260 x_10^2
      + 208 x_10*x_12 + 104 x_10*x_19 - 104 x_10*c1a_5_int_slack_0
      - 104 x_10*c1a_5_int_slack_1 - 104 x_10*c1a_10_int_slack_0
      - 104 x_10*c1a_11_int_slack_0 - 104 x_10*c1a_11_int_slack_1
      - 104 x_10*c1a_15_int_slack_0 + 312 x_12^2 + 104 x_12*x_19
      - 104 x_12*c1a_7_int_slack_0 - 104 x_12*c1a_11_int_slack_0
      - 104 x_12*c1a_11_int_slack_1 - 104 x_12*c1a_12_int_slack_0
      - 104 x_12*c1a_13_int_slack_0 - 104 x_12*c1a_17_int_slack_0 + 208 x_19^2
      - 104 x_19*c1a_14_int_slack_0 - 104 x_19*c1a_14_int_slack_1
      - 104 x_19*c1a_18_int_slack_0 - 104 x_19*c1a_19_int_slack_0
      + 52 c1a_0_int_slack_0^2 + 104 c1a_0_int_slack_0*c1a_0_int_slack_1
      + 52 c1a_0_int_slack_1^2 + 52 c1a_1_int_slack_0^2
      + 104 c1a_1_int_slack_0*c1a_1_int_slack_1 + 52 c1a_1_int_slack_1^2
      + 52 c1a_2_int_slack_0^2 + 104 c1a_2_int_slack_0*c1a_2_int_slack_1
      + 52 c1a_2_int_slack_1^2 + 52 c1a_3_int_slack_0^2 + 52 c1a_4_int_slack_0^2
      + 104 c1a_4_int_slack_0*c1a_4_int_slack_1 + 52 c1a_4_int_slack_1^2
      + 52 c1a_5_int_slack_0^2 + 104 c1a_5_int_slack_0*c1a_5_int_slack_1
      + 52 c1a_5_int_slack_1^2 + 52 c1a_6_int_slack_0^2 + 52 c1a_7_int_slack_0^2
      + 52 c1a_8_int_slack_0^2 + 104 c1a_8_int_slack_0*c1a_8_int_slack_1
      + 52 c1a_8_int_slack_1^2 + 52 c1a_9_int_slack_0^2
      + 52 c1a_10_int_slack_0^2 + 52 c1a_11_int_slack_0^2
      + 104 c1a_11_int_slack_0*c1a_11_int_slack_1 + 52 c1a_11_int_slack_1^2
      + 52 c1a_12_int_slack_0^2 + 52 c1a_13_int_slack_0^2
      + 52 c1a_14_int_slack_0^2 + 104 c1a_14_int_slack_0*c1a_14_int_slack_1
      + 52 c1a_14_int_slack_1^2 + 52 c1a_15_int_slack_0^2
      + 52 c1a_17_int_slack_0^2 + 52 c1a_18_int_slack_0^2
      + 52 c1a_19_int_slack_0^2 ]/2 + 624
Subject To

Bounds
 0 <= y_0 <= 1
 0 <= y_1 <= 1
 0 <= y_2 <= 1
 0 <= y_3 <= 1
 0 <= y_4 <= 1
 0 <= y_5 <= 1
 0 <= y_6 <= 1
 0 <= y_7 <= 1
 0 <= y_8 <= 1
 0 <= y_9 <= 1
 0 <= y_10 <= 1
 0 <= y_11 <= 1
 0 <= y_12 <= 1
 0 <= y_13 <= 1
 0 <= y_14 <= 1
 0 <= y_15 <= 1
 0 <= y_16 <= 1
 0 <= y_17 <= 1
 0 <= y_18 <= 1
 0 <= y_19 <= 1
 0 <= x_0 <= 1
 0 <= x_1 <= 1
 0 <= x_3 <= 1
 0 <= x_9 <= 1
 0 <= x_10 <= 1
 0 <= x_12 <= 1
 0 <= x_19 <= 1
 0 <= c1a_0_int_slack_0 <= 1
 0 <= c1a_0_int_slack_1 <= 1
 0 <= c1a_1_int_slack_0 <= 1
 0 <= c1a_1_int_slack_1 <= 1
 0 <= c1a_2_int_slack_0 <= 1
 0 <= c1a_2_int_slack_1 <= 1
 0 <= c1a_3_int_slack_0 <= 1
 0 <= c1a_4_int_slack_0 <= 1
 0 <= c1a_4_int_slack_1 <= 1
 0 <= c1a_5_int_slack_0 <= 1
 0 <= c1a_5_int_slack_1 <= 1
 0 <= c1a_6_int_slack_0 <= 1
 0 <= c1a_7_int_slack_0 <= 1
 0 <= c1a_8_int_slack_0 <= 1
 0 <= c1a_8_int_slack_1 <= 1
 0 <= c1a_9_int_slack_0 <= 1
 0 <= c1a_10_int_slack_0 <= 1
 0 <= c1a_11_int_slack_0 <= 1
 0 <= c1a_11_int_slack_1 <= 1
 0 <= c1a_12_int_slack_0 <= 1
 0 <= c1a_13_int_slack_0 <= 1
 0 <= c1a_14_int_slack_0 <= 1
 0 <= c1a_14_int_slack_1 <= 1
 0 <= c1a_15_int_slack_0 <= 1
 0 <= c1a_17_int_slack_0 <= 1
 0 <= c1a_18_int_slack_0 <= 1
 0 <= c1a_19_int_slack_0 <= 1

Binaries
 y_0 y_1 y_2 y_3 y_4 y_5 y_6 y_7 y_8 y_9 y_10 y_11 y_12 y_13 y_14 y_15 y_16 y_17
 y_18 y_19 x_0 x_1 x_3 x_9 x_10 x_12 x_19 c1a_0_int_slack_0 c1a_0_int_slack_1
 c1a_1_int_slack_0 c1a_1_int_slack_1 c1a_2_int_slack_0 c1a_2_int_slack_1
 c1a_3_int_slack_0 c1a_4_int_slack_0 c1a_4_int_slack_1 c1a_5_int_slack_0
 c1a_5_int_slack_1 c1a_6_int_slack_0 c1a_7_int_slack_0 c1a_8_int_slack_0
 c1a_8_int_slack_1 c1a_9_int_slack_0 c1a_10_int_slack_0 c1a_11_int_slack_0
 c1a_11_int_slack_1 c1a_12_int_slack_0 c1a_13_int_slack_0 c1a_14_int_slack_0
 c1a_14_int_slack_1 c1a_15_int_slack_0 c1a_17_int_slack_0 c1a_18_int_slack_0
 c1a_19_int_slack_0
End
